12
0 89 11 57 100 62 67 62 74 37 63 52 
17 0 44 92 16 89 12 35 42 50 32 63 
71 26 0 41 100 82 41 91 47 47 26 44 
23 19 11 0 44 55 19 23 57 69 47 67 
56 15 48 91 0 67 56 20 62 32 65 46 
77 34 44 34 4 0 74 89 99 5 5 23 
23 30 60 33 22 17 0 4 58 69 74 96 
1 69 11 35 57 24 10 0 14 93 87 20 
94 91 81 1 57 22 19 52 0 35 16 53 
68 3 21 71 75 3 77 27 6 0 96 48 
86 21 29 28 49 1 11 42 67 3 0 49 
25 96 74 64 35 32 8 30 42 48 65 0 
